echo none

include crystalindex.in #filename inside

label data
clear
variable jumpname index lmp_fitting # for "jump" filename

variable changeratio equal 0.01 #this value must be the same as used in dmol3 for B1 unit cell length 
variable compress equal 5
variable tension equal 5
variable allstep equal ${compress}+${tension}+1 # 1 for optimized structure
variable total loop ${allstep} ## total steps for deforming cell
variable repli equal 1 # times for replicate

units metal 
dimension 3 
boundary p p p 
box tilt large 
atom_style atomic 


# ---------- Create Atoms ---------------------
read_data ${filename}
change_box all triclinic
# ---------- Define Interatomic Potential ---------------------                                 
pair_style meam/c
pair_coeff * * ref.lib Pd Rh Co Ce Pt  ref.meam Pd Rh Co Ce Pt
#---------------------------------------------

neighbor 0.3 bin 
neigh_modify every 1 check yes one 5000

# the read-in structure is the optimized one
thermo_style custom etotal pxx pyy pzz 
run 0
## use the most stable structure 
print "pxx $(pxx)" append output.dat screen no
#print "pyy $(pyy)" append output.dat screen no
#print "pzz $(pzz)" append output.dat screen no
#### use the most stable structure to optimize the cell shape

#fix 3 all box/relax  tri 0.0
#minimize 0.0 0.0 1000 1000 
#unfix 3
#
#print 'lx $(lx)' append output.dat screen no
#print 'ly $(ly)' append output.dat screen no
#print 'lz $(lz)' append output.dat screen no
#print 'cellalpha $(cellalpha)' append output.dat screen no
#print 'cellbeta $(cellbeta)' append output.dat screen no
#print 'cellgamma $(cellgamma)' append output.dat screen no
#variable atomnum equal count(all)
#variable PE equal $(pe)/${atomnum}
#print 'optEnergy ${PE}' append output.dat screen no

clear  #####################clear minimized structure
#
#units metal 
#dimension 3 
#boundary p p p 
#box tilt large 
#atom_style atomic
#
## ---------- Create Atoms ---------------------
#read_data ${filename}
#change_box all triclinic
## ---------- Define Interatomic Potential ---------------------                                 
#pair_style meam
#pair_coeff * * ref.lib Ti Zr    ref.meam Ti Zr     
##---------------------------------------------
#
#neighbor 1 bin 
#neigh_modify every 5 delay 10 check yes one 5000
#
#timestep 0.001
#velocity all create 300 12345 mom yes rot yes dist gaussian
#velocity all scale 300
#
#fix 1 all npt temp 300.0 300.0 0.1 aniso 0.0 0.0 1.0
#run 500
#unfix 1
#
#variable potE equal pe
#variable cellx equal lx
#variable celly equal ly
#variable cellz equal lz
#
#fix 1 all npt temp 300.0 300.0 0.1 aniso 0.0 0.0 1.0
#fix aveE all ave/time 50 10 500 v_potE 
#fix avelx all ave/time 50 10 500 v_cellx 
#fix avely all ave/time 50 10 500 v_celly 
#fix avelz all ave/time 50 10 500 v_cellz 
#run 500
#variable atomnum equal count(all)
#variable mdE equal f_aveE/${atomnum}
#variable mdlx equal f_avelx
#variable mdly equal f_avely
#variable mdlz equal f_avelz
#
#print 'mdE ${mdE}' append output.dat screen no
#print 'mdlx ${mdlx}' append output.dat screen no
#print 'mdly ${mdly}' append output.dat screen no
#print 'mdlz ${mdlz}' append output.dat screen no
#
#unfix 1
#unfix aveE
#unfix avelx
#unfix avely
#unfix avelz
#
#clear  #####################clear MD data
units metal 
dimension 3 
boundary p p p 
box tilt large 
atom_style atomic

# ---------- Create Atoms ---------------------
read_data ${filename}
change_box all triclinic
# ---------- Define Interatomic Potential ---------------------                                 
pair_style meam/c
pair_coeff * * ref.lib Pd Rh Co Ce Pt    ref.meam Pd Rh Co Ce Pt      
#---------------------------------------------


neighbor 0.3 bin 
neigh_modify every 1 check yes one 5000


#change_box all triclinic
#write_data see${filename}

variable B1_tempx equal lx
variable B1_tempy equal ly
variable B1_tempz equal lz
variable B1_tempxy equal xy

variable B1_lengthx equal ${B1_tempx}
variable B1_lengthy equal ${B1_tempy}
variable B1_lengthz equal ${B1_tempz}
variable B1_lengthxy equal ${B1_tempxy}

variable incrementx equal ${changeratio}*${B1_lengthx}
variable incrementy equal ${changeratio}*${B1_lengthy}
variable incrementz equal ${changeratio}*${B1_lengthz}
variable incrementxy equal ${changeratio}*${B1_lengthxy}
variable ref_lengthx equal ${B1_lengthx}-${compress}*${incrementx}
variable ref_lengthy equal ${B1_lengthy}-${compress}*${incrementy}
variable ref_lengthz equal ${B1_lengthz}-${compress}*${incrementz}
variable ref_lengthxy equal ${B1_lengthxy}-${compress}*${incrementxy}
### making the intial cell for fitting loop

variable xlo equal xlo
variable ylo equal ylo
variable zlo equal zlo

variable xhi equal ${xlo}+${ref_lengthx}
variable yhi equal ${ylo}+${ref_lengthy}
variable zhi equal ${zlo}+${ref_lengthz}
variable xyhi equal ${ref_lengthxy}
change_box all x final ${xlo} ${xhi} y final ${ylo} ${yhi} &
z final ${zlo} ${zhi} xy final ${xyhi} remap units box

### end for making the smallest unit cell

variable atomnum equal count(all)
#print "${atomnum}" append TaSi.dat screen no

label fitting

variable xlo equal xlo
variable ylo equal ylo
variable zlo equal zlo
variable xy equal xy

variable xhi equal ${xlo}+${ref_lengthx}+(${total}-1)*${incrementx}
variable yhi equal ${ylo}+${ref_lengthy}+(${total}-1)*${incrementy}
variable zhi equal ${zlo}+${ref_lengthz}+(${total}-1)*${incrementz}
variable xyf equal ${ref_lengthxy}+(${total}-1)*${incrementxy}
variable lattice equal (${ref_lengthx}+(${total}-1)*${incrementx})/${repli}
#variable lattice equal ${ref_lengthx}+(${total}-1)*${incrementx}
thermo 1
thermo_style custom  etotal pxx

change_box all x final ${xlo} ${xhi} y final ${ylo} ${yhi} &
z final ${zlo} ${zhi} xy final ${xyf} remap units box

#dump 		1 all custom 1 TaSi_${total}.cfg id type x y z
run 0  
#undump 1
 
variable etotal equal etotal
variable be equal ${etotal}/${atomnum}
variable pxx equal pxx
#include printdata.in
variable templattice equal ${lattice}
print "${templattice} ${be}" append output.dat screen no

#write_data Zn_${total}.data
next total
jump ${jumpname}.in fitting #follow the label
next filename
jump ${jumpname}.in data #follow the label
	                               

